Minimize
	value: tt

Subject to
tt + 2000 s_1_1 > 0
tt - t_1_1 - 2000.000000 s_1_1 > -1946.899100
tt + 2000 s_2_1 > 0
tt - t_2_1 - 2000.000000 s_2_1 > -1919.573500
tt + 2000 s_1_2 > 0
tt - t_1_2 - 2000.000000 s_1_2 > -1985.354300
tt + 2000 s_2_2 > 0
tt - t_2_2 - 2000.000000 s_2_2 > -1983.164600
tt + 2000 s_1_3 > 0
tt - t_1_3 - 2000.000000 s_1_3 > -1992.441200
tt + 2000 s_2_3 > 0
tt - t_2_3 - 2000.000000 s_2_3 > -1987.970100
tt + 2000 s_1_4 > 0
tt - t_1_4 - 2000.000000 s_1_4 > -1967.383600
tt + 2000 s_2_4 > 0
tt - t_2_4 - 2000.000000 s_2_4 > -1953.022133
tt + 2000 s_1_5 > 0
tt - t_1_5 - 2048.000000 s_1_5 + 48.000000 s_1_1 > -1999.341600
tt + 2000 s_2_5 > 0
tt - t_2_5 - 2048.000000 s_2_5 + 48.000000 s_2_1 > -1997.760222
s_1_1 + s_2_1  = 1
s_1_2 + s_2_2  = 1
s_1_3 + s_2_3  = 1
s_1_4 + s_2_4  = 1
s_1_5 + s_2_5  = 1
t_1_1 - t_1_2 + 2000.000000 u_1_1_2 > 14.645700
t_1_2 - t_1_1 - 2000.000000 u_1_1_2 > -1946.899100
t_2_1 - t_2_2 + 2000.000000 u_2_1_2 > 16.835400
t_2_2 - t_2_1 - 2000.000000 u_2_1_2 > -1919.573500
t_1_1 - t_1_3 + 2000.000000 u_1_1_3 > 7.558800
t_1_3 - t_1_1 - 2000.000000 u_1_1_3 > -1946.899100
t_2_1 - t_2_3 + 2000.000000 u_2_1_3 > 12.029900
t_2_3 - t_2_1 - 2000.000000 u_2_1_3 > -1919.573500
t_1_1 - t_1_4 + 2000.000000 u_1_1_4 > 32.616400
t_1_4 - t_1_1 - 2000.000000 u_1_1_4 > -1946.899100
t_2_1 - t_2_4 + 2000.000000 u_2_1_4 > 46.977867
t_2_4 - t_2_1 - 2000.000000 u_2_1_4 > -1919.573500
t_1_5 - t_1_1 - 2000.000000 s_1_1 > -1943.258230
t_1_5 - t_2_1 - 2000.000000 s_2_1 > -1913.918510
t_2_5 - t_1_1 - 2000.000000 s_1_1 > -1943.258230
t_2_5 - t_2_1 - 2000.000000 s_2_1 > -1913.918510
t_1_2 - t_1_1 + 2000.000000 u_1_2_1 > 53.100900
t_1_1 - t_1_2 - 2000.000000 u_1_2_1 > -1985.354300
t_2_2 - t_2_1 + 2000.000000 u_2_2_1 > 80.426500
t_2_1 - t_2_2 - 2000.000000 u_2_2_1 > -1983.164600
t_1_2 - t_1_3 + 2000.000000 u_1_2_3 > 7.558800
t_1_3 - t_1_2 - 2000.000000 u_1_2_3 > -1985.354300
t_2_2 - t_2_3 + 2000.000000 u_2_2_3 > 12.029900
t_2_3 - t_2_2 - 2000.000000 u_2_2_3 > -1983.164600
t_1_2 - t_1_4 + 2000.000000 u_1_2_4 > 32.616400
t_1_4 - t_1_2 - 2000.000000 u_1_2_4 > -1985.354300
t_2_2 - t_2_4 + 2000.000000 u_2_2_4 > 46.977867
t_2_4 - t_2_2 - 2000.000000 u_2_2_4 > -1983.164600
t_1_5 - t_1_2 - 2000.000000 s_1_2 > -1981.713430
t_1_5 - t_2_2 - 2000.000000 s_2_2 > -1977.509610
t_2_5 - t_1_2 - 2000.000000 s_1_2 > -1981.713430
t_2_5 - t_2_2 - 2000.000000 s_2_2 > -1977.509610
t_1_3 - t_1_1 + 2000.000000 u_1_3_1 > 53.100900
t_1_1 - t_1_3 - 2000.000000 u_1_3_1 > -1992.441200
t_2_3 - t_2_1 + 2000.000000 u_2_3_1 > 80.426500
t_2_1 - t_2_3 - 2000.000000 u_2_3_1 > -1987.970100
t_1_3 - t_1_2 + 2000.000000 u_1_3_2 > 14.645700
t_1_2 - t_1_3 - 2000.000000 u_1_3_2 > -1992.441200
t_2_3 - t_2_2 + 2000.000000 u_2_3_2 > 16.835400
t_2_2 - t_2_3 - 2000.000000 u_2_3_2 > -1987.970100
t_1_3 - t_1_4 + 2000.000000 u_1_3_4 > 32.616400
t_1_4 - t_1_3 - 2000.000000 u_1_3_4 > -1992.441200
t_2_3 - t_2_4 + 2000.000000 u_2_3_4 > 46.977867
t_2_4 - t_2_3 - 2000.000000 u_2_3_4 > -1987.970100
t_1_5 - t_1_3 - 2000.000000 s_1_3 > -1988.800330
t_1_5 - t_2_3 - 2000.000000 s_2_3 > -1982.315110
t_2_5 - t_1_3 - 2000.000000 s_1_3 > -1988.800330
t_2_5 - t_2_3 - 2000.000000 s_2_3 > -1982.315110
t_1_4 - t_1_1 + 2000.000000 u_1_4_1 > 53.100900
t_1_1 - t_1_4 - 2000.000000 u_1_4_1 > -1967.383600
t_2_4 - t_2_1 + 2000.000000 u_2_4_1 > 80.426500
t_2_1 - t_2_4 - 2000.000000 u_2_4_1 > -1953.022133
t_1_4 - t_1_2 + 2000.000000 u_1_4_2 > 14.645700
t_1_2 - t_1_4 - 2000.000000 u_1_4_2 > -1967.383600
t_2_4 - t_2_2 + 2000.000000 u_2_4_2 > 16.835400
t_2_2 - t_2_4 - 2000.000000 u_2_4_2 > -1953.022133
t_1_4 - t_1_3 + 2000.000000 u_1_4_3 > 7.558800
t_1_3 - t_1_4 - 2000.000000 u_1_4_3 > -1967.383600
t_2_4 - t_2_3 + 2000.000000 u_2_4_3 > 12.029900
t_2_3 - t_2_4 - 2000.000000 u_2_4_3 > -1953.022133
t_1_5 - t_1_4 - 2000.000000 s_1_4 > -1963.742730
t_1_5 - t_2_4 - 2000.000000 s_2_4 > -1947.367143
t_2_5 - t_1_4 - 2000.000000 s_1_4 > -1963.742730
t_2_5 - t_2_4 - 2000.000000 s_2_4 > -1947.367143
t_1_5 - t_1_1 - 2000.000000 s_1_1 > -1943.258230
t_1_5 - t_2_1 - 2000.000000 s_2_1 > -1913.918510
t_2_5 - t_1_1 - 2000.000000 s_1_1 > -1943.258230
t_2_5 - t_2_1 - 2000.000000 s_2_1 > -1913.918510
t_1_5 - t_1_2 - 2000.000000 s_1_2 > -1981.713430
t_1_5 - t_2_2 - 2000.000000 s_2_2 > -1977.509610
t_2_5 - t_1_2 - 2000.000000 s_1_2 > -1981.713430
t_2_5 - t_2_2 - 2000.000000 s_2_2 > -1977.509610
t_1_5 - t_1_3 - 2000.000000 s_1_3 > -1988.800330
t_1_5 - t_2_3 - 2000.000000 s_2_3 > -1982.315110
t_2_5 - t_1_3 - 2000.000000 s_1_3 > -1988.800330
t_2_5 - t_2_3 - 2000.000000 s_2_3 > -1982.315110
t_1_5 - t_1_4 - 2000.000000 s_1_4 > -1963.742730
t_1_5 - t_2_4 - 2000.000000 s_2_4 > -1947.367143
t_2_5 - t_1_4 - 2000.000000 s_1_4 > -1963.742730
t_2_5 - t_2_4 - 2000.000000 s_2_4 > -1947.367143
Binary
s_1_1
s_2_1
s_1_2
s_2_2
s_1_3
s_2_3
s_1_4
s_2_4
s_1_5
s_2_5
u_1_1_2
u_2_1_2
u_1_1_3
u_2_1_3
u_1_1_4
u_2_1_4
u_1_2_1
u_2_2_1
u_1_2_3
u_2_2_3
u_1_2_4
u_2_2_4
u_1_3_1
u_2_3_1
u_1_3_2
u_2_3_2
u_1_3_4
u_2_3_4
u_1_4_1
u_2_4_1
u_1_4_2
u_2_4_2
u_1_4_3
u_2_4_3

End
